\* Dieta *\
Minimize
OBJ: 61 kiwi + 104 manzana + 1000 piña
Subject To
melonRequirement: 1000 piña >= 2000
papayaRequirement: 104 manzana >= 2000
sandiaRequirement: 61 kiwi >= 2000
Bounds
0 <= manzana
Generals
manzana
End
